c 2-SAT control (sanity-only)
c Generated by mu_sat_difficulty_scale.py
p cnf 20 40
-18 -15 0
5 3 0
20 -13 0
13 14 0
-15 19 0
-1 15 0
-13 6 0
16 6 0
6 17 0
-9 -2 0
8 -10 0
5 19 0
-14 -11 0
-7 -12 0
-15 16 0
-19 2 0
13 -20 0
6 16 0
-4 -1 0
-19 -13 0
-20 14 0
-12 -2 0
10 -16 0
18 11 0
-11 -14 0
-18 -1 0
17 -5 0
-13 -20 0
-6 20 0
-10 14 0
-9 -8 0
5 11 0
-6 5 0
10 -6 0
13 17 0
-9 -11 0
-11 -5 0
8 7 0
-12 2 0
-11 -5 0
